
Gurobi 10.0.1 (mac64[arm]) logging started Sun Mar 31 05:35:14 2024

Set parameter LogFile to value "/Users/deniserings/Documents/zib/s-bahn-data/scripts/DeniseMA/processed/BGAS_BKW/RENS/BGAS_BKW_subMBP_random1_0.6_202403301837.log"
Gurobi Optimizer version 10.0.1 build v10.0.1rc0 (mac64[arm])

CPU model: Apple M2
Thread count: 8 physical cores, 8 logical processors, using up to 8 threads

Optimize a model with 1969 rows, 1012 columns and 6868 nonzeros
Model fingerprint: 0xb6bb9bc5
Variable types: 411 continuous, 601 integer (170 binary)
Coefficient statistics:
  Matrix range     [1e+00, 2e+02]
  Objective range  [1e+00, 4e+02]
  Bounds range     [1e+00, 2e+02]
  RHS range        [1e+00, 5e+02]
Presolve removed 1479 rows and 710 columns
Presolve time: 0.31s
Presolved: 490 rows, 302 columns, 1877 nonzeros
Variable types: 108 continuous, 194 integer (194 binary)
Found heuristic solution: objective 5140.0000000
Found heuristic solution: objective 5069.0000000

Root relaxation: objective 4.540000e+03, 152 iterations, 0.00 seconds (0.00 work units)

    Nodes    |    Current Node    |     Objective Bounds      |     Work
 Expl Unexpl |  Obj  Depth IntInf | Incumbent    BestBd   Gap | It/Node Time

     0     0 4540.00000    0   12 5069.00000 4540.00000  10.4%     -    0s
H    0     0                    4969.0000000 4540.00000  8.63%     -    0s
H    0     0                    4965.0000000 4540.00000  8.56%     -    0s
     0     0 4540.00000    0   20 4965.00000 4540.00000  8.56%     -    0s
H    0     0                    4914.0000000 4540.00000  7.61%     -    0s
     0     0 4540.00000    0   28 4914.00000 4540.00000  7.61%     -    0s
     0     0 4540.00000    0   10 4914.00000 4540.00000  7.61%     -    0s
     0     0 4540.00000    0    3 4914.00000 4540.00000  7.61%     -    0s
     0     0 4608.00000    0   20 4914.00000 4608.00000  6.23%     -    0s
     0     0 4652.00000    0   14 4914.00000 4652.00000  5.33%     -    0s
     0     0 4652.00000    0   27 4914.00000 4652.00000  5.33%     -    0s
     0     0 4653.00000    0    6 4914.00000 4653.00000  5.31%     -    0s
     0     0 4662.39636    0   35 4914.00000 4662.39636  5.12%     -    0s
     0     0 4672.00000    0   14 4914.00000 4672.00000  4.92%     -    0s
     0     0 4672.00000    0   13 4914.00000 4672.00000  4.92%     -    0s
     0     2 4672.00000    0   13 4914.00000 4672.00000  4.92%     -    0s

Cutting planes:
  Learned: 22
  Gomory: 9
  Cover: 48
  Implied bound: 25
  MIR: 49
  StrongCG: 2
  Flow cover: 30
  Network: 1
  RLT: 5
  Relax-and-lift: 5

Explored 2920 nodes (30170 simplex iterations) in 0.67 seconds (0.34 work units)
Thread count was 8 (of 8 available processors)

Solution count 5: 4914 4965 4969 ... 5140

Optimal solution found (tolerance 1.00e-04)
Best objective 4.914000000000e+03, best bound 4.914000000000e+03, gap 0.0000%

User-callback calls 6823, time in user-callback 0.01 sec

Statistics for modelBGAS_BKW:
  Linear constraint matrix    : 1969 Constrs, 1012 Vars, 6868 NZs
  Variable types              : 411 Continuous,
601 Integer (170 Binary)
  Matrix coefficient range    : [ 1, 200 ]
  Objective coefficient range : [ 1, 388 ]
  Variable bound range        : [ 1, 199 ]
  RHS coefficient range       : [ 1, 549 ]
